p cnf 31 77
a 1 21 0
e 2 3 4 5 6 7 8 9 10 11 12 13 14 15 16 17 18 19 20 22 23 24 25 26 27 28 29 30 31 0
-3 1 0
-3 -2 0
-1 2 3 0
8 7 0
8 2 0
-7 -2 -8 0
9 -6 0
9 -8 0
6 8 -9 0
10 5 0
10 9 0
-5 -9 -10 0
-11 4 0
-11 10 0
-4 -10 11 0
1 -12 -13 0
-1 12 -13 0
1 12 13 0
-1 -12 13 0
14 -7 0
14 -13 0
7 13 -14 0
-15 8 0
-15 -14 0
-8 14 15 0
-16 11 0
-16 -15 0
-11 15 16 0
-17 -5 0
-17 14 0
5 -14 17 0
-18 16 0
-18 17 0
-16 -17 18 0
3 18 -19 0
-3 -18 -19 0
3 -18 19 0
-3 18 19 0
-8 -20 -21 0
8 20 -21 0
-8 20 21 0
8 -20 21 0
8 -21 -22 0
-8 21 -22 0
8 21 22 0
-8 -21 22 0
-23 11 0
-23 7 0
-11 -7 23 0
22 23 -24 0
-22 -23 -24 0
22 -23 24 0
-22 23 24 0
-25 -19 0
-25 -24 0
19 24 25 0
-27 -12 0
-27 -26 0
12 26 27 0
-29 28 0
-29 -7 0
-28 7 29 0
30 -27 0
30 29 0
27 -29 -30 0
25 30 -31 0
-25 -30 -31 0
25 -30 31 0
-25 30 31 0
29 -13 -11 0
9 -17 19 -8 -20 -6 13 -31 0
-21 -10 -30 15 -9 0
-15 26 7 14 0
-29 9 11 -17 27 -26 -8 0
-19 3 30 0
-15 30 -21 -16 -7 0
31 0
